--- Job gams_0128_016_32_04_0.67_05_0.50_0.90_23_problem.txt Start 02/25/21 05:53:24 35.2.0 r33388c4 WEX-WEI x86 64bit/MS Windows
--- Applying:
    C:\Users\MariaSosnovskaya\GAMS35\gmsprmNT.txt
--- GAMS Parameters defined
    Input C:\Users\MariaSosnovskaya\Downloads\WfmGams3\problems\gams_0128_016_32_04_0.67_05_0.50_0.90_23_problem.txt
    ScrDir C:\Users\MariaSosnovskaya\Downloads\WfmGams3\225f\
    SysDir C:\Users\MariaSosnovskaya\GAMS35\
Licensee: GAMS Evaluation License                        S210124/0001AB-GEN
          Sobolev Institute of Mathematics, Discrete Optimization LaDCE1098
          C:\Users\MariaSosnovskaya\GAMS35\gamslice.txt
          Evaluation license: Not for commercial or production use
GAMS 35.2.0   Copyright (C) 1987-2021 GAMS Development. All rights reserved
--- Starting compilation
--- gams_0128_016_32_04_0.67_05_0.50_0.90_23_problem.txt(22) 3 Mb
--- . gams_0128_016_32_04_0.67_05_0.50_0.90_23.inc(17160) 4 Mb
--- gams_0128_016_32_04_0.67_05_0.50_0.90_23_problem.txt(98) 4 Mb
--- Starting execution: elapsed 0:00:00.327
--- gams_0128_016_32_04_0.67_05_0.50_0.90_23_problem.txt(17181) 5 Mb
--- Generating MIP model mymodel
--- gams_0128_016_32_04_0.67_05_0.50_0.90_23_problem.txt(17217) 14 Mb--- gams_0128_016_32_04_0.67_05_0.50_0.90_23_problem.txt(17227) 21 Mb--- gams_0128_016_32_04_0.67_05_0.50_0.90_23_problem.txt(17234) 39 Mb--- gams_0128_016_32_04_0.67_05_0.50_0.90_23_problem.txt(17237) 39 Mb--- gams_0128_016_32_04_0.67_05_0.50_0.90_23_problem.txt(17237) 40 Mb
---   91,265 rows  81,921 columns  405,089 non-zeroes
---   81,920 discrete-columns
--- Executing CPLEX (Solvelink=2): elapsed 0:00:00.969

IBM ILOG CPLEX   35.2.0 r33388c4 Released Jun 02, 2021 WEI x86 64bit/MS Window

--- GAMS/Cplex licensed for continuous and discrete problems.
--- Space for names approximately 3.85 Mb
--- Use option 'names no' to turn use of names off
--- GMO memory 38.78 Mb (peak 39.41 Mb)
--- Dictionary memory 0.00 Mb
--- Cplex 20.1.0.1 link memory 2.61 Mb (peak 13.13 Mb)
--- Starting Cplex

Version identifier: 20.1.0.1 | 2021-04-07 | 3a818710c
CPXPARAM_Advance                                 0
CPXPARAM_Threads                                 1
CPXPARAM_MIP_Display                             4
CPXPARAM_TimeLimit                               3600
CPXPARAM_MIP_Tolerances_AbsMIPGap                0
Generic callback                                 0x50
Tried aggregator 2 times.
MIP Presolve eliminated 73985 rows and 53410 columns.
Aggregator did 384 substitutions.
Reduced MIP has 16896 rows, 28128 columns, and 92703 nonzeros.
Reduced MIP has 28128 binaries, 0 generals, 0 SOSs, and 0 indicators.
Presolve time = 0.30 sec. (141.94 ticks)
Probing fixed 1429 vars, tightened 0 bounds.
Probing changed sense of 80 constraints.
Probing time = 0.27 sec. (74.26 ticks)
Tried aggregator 16 times.
Detecting symmetries...
MIP Presolve eliminated 640 rows and 1557 columns.
Aggregator did 640 substitutions.
Reduced MIP has 15616 rows, 25931 columns, and 85925 nonzeros.
Reduced MIP has 25931 binaries, 0 generals, 0 SOSs, and 0 indicators.
Presolve time = 1.72 sec. (783.83 ticks)
Probing time = 0.02 sec. (7.98 ticks)
Clique table members: 61726.
MIP emphasis: balance optimality and feasibility.
MIP search method: dynamic search.
Parallel mode: none, using 1 thread.
Tried aggregator 1 time.
No LP presolve or aggregator reductions.
Presolve time = 0.02 sec. (12.55 ticks)
Initializing dual steep norms . . .

Iteration log . . .
Iteration:     1   Dual objective     =         16572.000000
Perturbation started.
Iteration:   101   Dual objective     =         16572.000000
Iteration:   669   Dual objective     =         16571.999663
Iteration:  1214   Dual objective     =         16571.999362
Iteration:  1742   Dual objective     =         16570.999200
Iteration:  2263   Dual objective     =         16569.999036
Iteration:  2794   Dual objective     =         16569.998883
Iteration:  3314   Dual objective     =         16569.998732
Iteration:  3817   Dual objective     =         16569.998604
Iteration:  4354   Dual objective     =         16569.998450
Iteration:  4909   Dual objective     =         16569.998282
Iteration:  5418   Dual objective     =         16569.998201
Iteration:  5915   Dual objective     =         16569.998136
Iteration:  6425   Dual objective     =         16569.998067
Iteration:  6892   Dual objective     =         16568.998025
Iteration:  7362   Dual objective     =         16568.997989
Iteration:  7820   Dual objective     =         16568.997950
Iteration:  8277   Dual objective     =         16566.997916
Iteration:  8735   Dual objective     =         16566.997886
Iteration:  9165   Dual objective     =         16566.997860
Iteration:  9599   Dual objective     =         16566.997835
Iteration: 10011   Dual objective     =         16566.997811
Iteration: 10402   Dual objective     =         16566.997791
Iteration: 10744   Dual objective     =         16566.997776
Iteration: 11072   Dual objective     =         16566.997763
Iteration: 11449   Dual objective     =         16566.997748
Iteration: 11705   Dual objective     =         16566.997733
Iteration: 11926   Dual objective     =         16566.997720
Iteration: 12139   Dual objective     =         16566.997713
Iteration: 12354   Dual objective     =         16566.997705
Iteration: 12566   Dual objective     =         16566.997696
Iteration: 12793   Dual objective     =         16566.997683
Iteration: 12997   Dual objective     =         16566.997677
Iteration: 13186   Dual objective     =         16566.997667
Iteration: 13372   Dual objective     =         16566.997661
Iteration: 13589   Dual objective     =         16566.997653
Iteration: 13789   Dual objective     =         16566.997646
Iteration: 13964   Dual objective     =         16566.997641
Iteration: 14133   Dual objective     =         16566.997636
Iteration: 14334   Dual objective     =         16566.997626
Iteration: 14491   Dual objective     =         16566.997622
Iteration: 14663   Dual objective     =         16566.997618
Iteration: 14816   Dual objective     =         16566.997614
Iteration: 14978   Dual objective     =         16566.997611
Iteration: 15137   Dual objective     =         16566.997607
Iteration: 15291   Dual objective     =         16566.997603
Iteration: 15445   Dual objective     =         16566.997600
Iteration: 15607   Dual objective     =         16566.997596
Iteration: 15763   Dual objective     =         16566.997593
Iteration: 15909   Dual objective     =         16566.997591
Iteration: 16051   Dual objective     =         16566.997588
Iteration: 16196   Dual objective     =         16566.997586
Iteration: 16338   Dual objective     =         16566.997584
Iteration: 16476   Dual objective     =         16566.997581
Iteration: 16619   Dual objective     =         16566.997579
Iteration: 16759   Dual objective     =         16566.997577
Iteration: 16902   Dual objective     =         16566.997576
Iteration: 17049   Dual objective     =         16566.997574
Iteration: 17184   Dual objective     =         16566.997573
Iteration: 17325   Dual objective     =         16566.997572
Iteration: 17471   Dual objective     =         16566.997570
Iteration: 17609   Dual objective     =         16566.997569
Iteration: 17751   Dual objective     =         16566.997568
Iteration: 17889   Dual objective     =         16566.997567
Iteration: 18023   Dual objective     =         16566.997567
Iteration: 18169   Dual objective     =         16566.997566
Iteration: 18313   Dual objective     =         16566.997565
Iteration: 18449   Dual objective     =         16566.997565
Iteration: 18585   Dual objective     =         16566.997565
Iteration: 18716   Dual objective     =         16566.997565
Removing perturbation.

Iteration log . . .
Iteration:     1   Dual objective     =         16567.000000
Root relaxation solution time = 9.86 sec. (4196.23 ticks)

        Nodes                                         Cuts/
   Node  Left     Objective  IInf  Best Integer    Best Bound    ItCnt     Gap

      0     0    16567.0000  3975                  16567.0000    18819         
      0     0    16567.0000  2390                    Cuts: 35    19733         
      0     0    16567.0000  2617                   Cuts: 278    22398         
      0     0    16567.0000  1693                ZeroHalf: 24    22893         
      0     0    16567.0000  2083                   Cuts: 149    24523         
*     0+    0                        16515.0000    16567.0000             0.31%
Found incumbent of value 16515.000000 after 33.26 sec. (15228.04 ticks)
*     0+    0                        16534.0000    16567.0000             0.20%
Found incumbent of value 16534.000000 after 34.12 sec. (15692.30 ticks)
*     0+    0                        16551.0000    16567.0000             0.10%
Found incumbent of value 16551.000000 after 34.21 sec. (15735.47 ticks)
*     0+    0                        16553.0000    16567.0000             0.08%
Found incumbent of value 16553.000000 after 34.31 sec. (15786.31 ticks)
*     0+    0                        16555.0000    16567.0000             0.07%
Found incumbent of value 16555.000000 after 34.48 sec. (15860.15 ticks)
*     0+    0                        16558.0000    16567.0000             0.05%
Found incumbent of value 16558.000000 after 34.65 sec. (15944.13 ticks)
      0     0        cutoff          16558.0000    16567.0000    24523    0.05%
      0     2    16567.0000   884    16558.0000    16567.0000    24523    0.05%
Elapsed time = 34.80 sec. (16001.45 ticks, tree = 0.01 MB, solutions = 6)
      5     7    16567.0000   882    16558.0000    16567.0000    26522    0.05%
     13    15    16567.0000   827    16558.0000    16567.0000    27798    0.05%
     18    20    16567.0000   770    16558.0000    16567.0000    28318    0.05%
     26    28    16566.0000   934    16558.0000    16567.0000    31980    0.05%
     37    39    16567.0000   838    16558.0000    16567.0000    33912    0.05%
     40    42    16567.0000   768    16558.0000    16567.0000    34257    0.05%
     50    52    16567.0000   735    16558.0000    16567.0000    35790    0.05%
     60    62    16567.0000   685    16558.0000    16567.0000    37111    0.05%
     72    74    16567.0000   776    16558.0000    16567.0000    38423    0.05%
    120   122    16567.0000   625    16558.0000    16567.0000    44626    0.05%
Elapsed time = 42.51 sec. (19987.83 ticks, tree = 2.24 MB, solutions = 6)
    143   145    16567.0000   644    16558.0000    16567.0000    52116    0.05%
    167   169    16567.0000   579    16558.0000    16567.0000    58265    0.05%
    186   188    16567.0000   441    16558.0000    16567.0000    65646    0.05%
    207   209    16567.0000   697    16558.0000    16567.0000    72296    0.05%
    219   221    16567.0000   593    16558.0000    16567.0000    79333    0.05%
    220   222    16567.0000   623    16558.0000    16567.0000    79440    0.05%
    247   249    16567.0000   727    16558.0000    16567.0000    85547    0.05%
    269   271    16567.0000   923    16558.0000    16567.0000    91727    0.05%
    289   291    16567.0000   815    16558.0000    16567.0000    99633    0.05%
    300   302    16567.0000  1017    16558.0000    16567.0000   105211    0.05%
Elapsed time = 64.05 sec. (30923.24 ticks, tree = 7.09 MB, solutions = 6)
    330   332    16566.2778   763    16558.0000    16567.0000   112256    0.05%
    340   342    16566.2778   740    16558.0000    16567.0000   117659    0.05%
    349   351    16566.2778   802    16558.0000    16567.0000   124475    0.05%
    373   375    16566.1825   507    16558.0000    16567.0000   131271    0.05%
    395   397    16565.3899   567    16558.0000    16567.0000   137405    0.05%
    405   407    16565.7143   648    16558.0000    16567.0000   143409    0.05%
    413   415    16565.7143   982    16558.0000    16567.0000   149185    0.05%
    427   429    16565.7143   884    16558.0000    16567.0000   157755    0.05%
    435   437    16565.6000   800    16558.0000    16567.0000   163037    0.05%
    445   447    16565.6000   647    16558.0000    16567.0000   168475    0.05%
Elapsed time = 84.82 sec. (41172.26 ticks, tree = 9.40 MB, solutions = 6)
    454   456    16565.6000   731    16558.0000    16567.0000   174255    0.05%
    463   465    16565.5286  1056    16558.0000    16567.0000   181908    0.05%
    471   473    16565.4048   811    16558.0000    16567.0000   185558    0.05%
    485   487    16565.2000   694    16558.0000    16567.0000   191193    0.05%
*   491+  301                        16566.0000    16567.0000             0.01%
Found incumbent of value 16566.000000 after 94.38 sec. (46065.59 ticks)

Zero-half cuts applied:  130
Gomory fractional cuts applied:  3

Root node processing (before b&c):
  Real time             =   34.69 sec. (15964.84 ticks)
Sequential b&c:
  Real time             =   59.72 sec. (30113.75 ticks)
                          ------------
Total (root+branch&cut) =   94.41 sec. (46078.59 ticks)

--- MIP status (102): integer optimal, tolerance.
--- Cplex Time: 94.41sec (det. 46078.82 ticks)

--- Fixing integer variables and solving final LP...

Version identifier: 20.1.0.1 | 2021-04-07 | 3a818710c
CPXPARAM_Advance                                 2
CPXPARAM_Threads                                 1
CPXPARAM_MIP_Display                             4
CPXPARAM_TimeLimit                               3600
CPXPARAM_MIP_Tolerances_AbsMIPGap                0
Tried aggregator 1 time.
LP Presolve eliminated 91265 rows and 81922 columns.
All rows and columns eliminated.
Presolve time = 0.08 sec. (45.99 ticks)

--- Fixed MIP status (1): optimal.
--- Cplex Time: 0.13sec (det. 76.55 ticks)


Solution satisfies tolerances
MIP Solution:        16566.000000    (193115 iterations, 491 nodes)
Final Solve:         16566.000000    (0 iterations)

Best possible:       16567.000000
Absolute gap:            1.000000
Relative gap:            0.000060

--- Reading solution for model mymodel
--- gams_0128_016_32_04_0.67_05_0.50_0.90_23_problem.txt(17237) 40 Mb  95 secs
--- Executing after solve: elapsed 0:01:37.018
--- gams_0128_016_32_04_0.67_05_0.50_0.90_23_problem.txt(17238) 40 Mb--- gams_0128_016_32_04_0.67_05_0.50_0.90_23_problem.txt(17258) 40 Mb
--- Putfile results C:\Users\MariaSosnovskaya\Downloads\WfmGams3\problems\gams_0128_016_32_04_0.67_05_0.50_0.90_23_results.txt
*** Status: Normal completion
--- Job gams_0128_016_32_04_0.67_05_0.50_0.90_23_problem.txt Stop 02/25/21 05:55:01 elapsed 0:01:37.812
